28 76 53 6 13 
59 85 61 16 44 38 86 17 83 18 
51 71 65 66 20 1 
89 60 45 8 82 63 90 32 70 
40 2 87 100 37 95 
27 69 30 9 35 34 3 77 
97 42 15 41 22 74 73 58 
92 98 91 14 43 57 75 56 4 26 
46 36 64 49 47 48 52 
50 33 81 78 79 29 24 68 80 12 
96 99 5 84 93 94 
21 72 39 23 67 55 25 54 
7 19 11 62 88 10 31 

